\ Model Staff Scheduling Problem with Shift Preferences
\ LP format - for model browsing. Use MPS format to capture full model detail.
Maximize
  8.3 x[0,0] + 1.83 x[0,1] + 6.47 x[0,2] + 4.97 x[0,3] + 2.46 x[0,4]
   + 4.84 x[0,5] + 2.71 x[0,6] + 5.68 x[0,7] + 5.37 x[0,8] + 1.46 x[0,9]
   + 6.06 x[1,0] + 2.53 x[1,1] + 9.67 x[1,2] + 8.13 x[1,3] + 9.84 x[1,4]
   + 0.03 x[1,5] + 1.89 x[1,6] + 9.34 x[1,7] + 9.28 x[1,8] + 4.55 x[1,9]
   + 9.91 x[2,0] + 5.84 x[2,1] + 2.77 x[2,2] + 5.67 x[2,3] + 1.99 x[2,4]
   + 0.51 x[2,5] + 4.28 x[2,6] + 9.82 x[2,7] + 5.95 x[2,8] + 4.76 x[2,9]
   + 3.87 x[3,0] + 1.19 x[3,1] + 1.81 x[3,2] + 3.61 x[3,3] + 8.01 x[3,4]
   + 0.55 x[3,5] + 8.47 x[3,6] + 2.77 x[3,7] + 5.48 x[3,8] + 2.68 x[3,9]
   + 7.84 x[4,0] + 9.26 x[4,1] + 6.87 x[4,2] + 2.05 x[4,3] + 8.91 x[4,4]
   + 5.67 x[4,5] + 0.1 x[4,6] + 3.38 x[4,7] + 6.24 x[4,8] + 2.77 x[4,9]
   + 4.3 x[5,0] + 2.3 x[5,1] + 6.18 x[5,2] + 5.71 x[5,3] + 2.67 x[5,4]
   + 5.53 x[5,5] + 8.41 x[5,6] + 1.52 x[5,7] + 5.54 x[5,8] + 3.17 x[5,9]
   + 2.2 x[6,0] + 8.06 x[6,1] + 8.25 x[6,2] + 2.03 x[6,3] + 6.16 x[6,4]
   + 9.54 x[6,5] + 0.91 x[6,6] + 7.4 x[6,7] + 9.79 x[6,8] + 2.7 x[6,9]
   + 4.86 x[7,0] + 0.96 x[7,1] + 8.45 x[7,2] + 2.21 x[7,3] + 4.6 x[7,4]
   + 1.66 x[7,5] + 1.74 x[7,6] + 2.2 x[7,7] + 1.07 x[7,8] + 2.39 x[7,9]
   + 3.08 x[8,0] + 5.8 x[8,1] + 6 x[8,2] + 3.87 x[8,3] + 2.13 x[8,4]
   + x[8,5] + 0.82 x[8,6] + 7.12 x[8,7] + 4.43 x[8,8] + 7.39 x[8,9]
   + 3.84 x[9,0] + 6.15 x[9,1] + 3.8 x[9,2] + 5.41 x[9,3] + 2.72 x[9,4]
   + 8.82 x[9,5] + 4.92 x[9,6] + 7.9 x[9,7] + 5.24 x[9,8] + 3.22 x[9,9]
Subject To
 R0: x[0,0] + x[1,0] + x[2,0] + x[3,0] + x[4,0] + x[5,0] + x[6,0] + x[7,0]
   + x[8,0] + x[9,0] >= 4
 R1: x[0,1] + x[1,1] + x[2,1] + x[3,1] + x[4,1] + x[5,1] + x[6,1] + x[7,1]
   + x[8,1] + x[9,1] >= 10
 R2: x[0,2] + x[1,2] + x[2,2] + x[3,2] + x[4,2] + x[5,2] + x[6,2] + x[7,2]
   + x[8,2] + x[9,2] >= 4
 R3: x[0,3] + x[1,3] + x[2,3] + x[3,3] + x[4,3] + x[5,3] + x[6,3] + x[7,3]
   + x[8,3] + x[9,3] >= 6
 R4: x[0,4] + x[1,4] + x[2,4] + x[3,4] + x[4,4] + x[5,4] + x[6,4] + x[7,4]
   + x[8,4] + x[9,4] >= 5
 R5: x[0,5] + x[1,5] + x[2,5] + x[3,5] + x[4,5] + x[5,5] + x[6,5] + x[7,5]
   + x[8,5] + x[9,5] >= 4
 R6: x[0,6] + x[1,6] + x[2,6] + x[3,6] + x[4,6] + x[5,6] + x[6,6] + x[7,6]
   + x[8,6] + x[9,6] >= 6
 R7: x[0,7] + x[1,7] + x[2,7] + x[3,7] + x[4,7] + x[5,7] + x[6,7] + x[7,7]
   + x[8,7] + x[9,7] >= 9
 R8: x[0,8] + x[1,8] + x[2,8] + x[3,8] + x[4,8] + x[5,8] + x[6,8] + x[7,8]
   + x[8,8] + x[9,8] >= 7
 R9: x[0,9] + x[1,9] + x[2,9] + x[3,9] + x[4,9] + x[5,9] + x[6,9] + x[7,9]
   + x[8,9] + x[9,9] >= 5
 R10: 8.34 x[0,0] + 6.57 x[0,1] + 10.38 x[0,2] + 8.65 x[0,3] + 5.39 x[0,4]
   + 9.8 x[0,5] + 11.01 x[0,6] + 9.11 x[0,7] + 5.65 x[0,8] + 10.32 x[0,9]
   <= 25.28
 R11: 8.34 x[1,0] + 6.57 x[1,1] + 10.38 x[1,2] + 8.65 x[1,3] + 5.39 x[1,4]
   + 9.8 x[1,5] + 11.01 x[1,6] + 9.11 x[1,7] + 5.65 x[1,8] + 10.32 x[1,9]
   <= 28.48
 R12: 8.34 x[2,0] + 6.57 x[2,1] + 10.38 x[2,2] + 8.65 x[2,3] + 5.39 x[2,4]
   + 9.8 x[2,5] + 11.01 x[2,6] + 9.11 x[2,7] + 5.65 x[2,8] + 10.32 x[2,9]
   <= 33.18
 R13: 8.34 x[3,0] + 6.57 x[3,1] + 10.38 x[3,2] + 8.65 x[3,3] + 5.39 x[3,4]
   + 9.8 x[3,5] + 11.01 x[3,6] + 9.11 x[3,7] + 5.65 x[3,8] + 10.32 x[3,9]
   <= 35.37
 R14: 8.34 x[4,0] + 6.57 x[4,1] + 10.38 x[4,2] + 8.65 x[4,3] + 5.39 x[4,4]
   + 9.8 x[4,5] + 11.01 x[4,6] + 9.11 x[4,7] + 5.65 x[4,8] + 10.32 x[4,9]
   <= 37.81
 R15: 8.34 x[5,0] + 6.57 x[5,1] + 10.38 x[5,2] + 8.65 x[5,3] + 5.39 x[5,4]
   + 9.8 x[5,5] + 11.01 x[5,6] + 9.11 x[5,7] + 5.65 x[5,8] + 10.32 x[5,9]
   <= 22.79
 R16: 8.34 x[6,0] + 6.57 x[6,1] + 10.38 x[6,2] + 8.65 x[6,3] + 5.39 x[6,4]
   + 9.8 x[6,5] + 11.01 x[6,6] + 9.11 x[6,7] + 5.65 x[6,8] + 10.32 x[6,9]
   <= 35.4
 R17: 8.34 x[7,0] + 6.57 x[7,1] + 10.38 x[7,2] + 8.65 x[7,3] + 5.39 x[7,4]
   + 9.8 x[7,5] + 11.01 x[7,6] + 9.11 x[7,7] + 5.65 x[7,8] + 10.32 x[7,9]
   <= 25.9
 R18: 8.34 x[8,0] + 6.57 x[8,1] + 10.38 x[8,2] + 8.65 x[8,3] + 5.39 x[8,4]
   + 9.8 x[8,5] + 11.01 x[8,6] + 9.11 x[8,7] + 5.65 x[8,8] + 10.32 x[8,9]
   <= 33.74
 R19: 8.34 x[9,0] + 6.57 x[9,1] + 10.38 x[9,2] + 8.65 x[9,3] + 5.39 x[9,4]
   + 9.8 x[9,5] + 11.01 x[9,6] + 9.11 x[9,7] + 5.65 x[9,8] + 10.32 x[9,9]
   <= 27.23
Bounds
End
